open_stacks/gp100by100_1.sol
objective = 95;
s = [36, 37, 69, 30, 14, 28, 40, 85, 5, 21, 22, 23, 24, 47, 50, 52, 53, 55, 57, 59, 65, 68, 70, 71, 96, 97, 1, 6, 8, 10, 15, 20, 25, 26, 27, 31, 33, 35, 38, 41, 42, 43, 44, 45, 48, 49, 51, 54, 61, 62, 64, 66, 72, 74, 77, 81, 82, 83, 84, 87, 93, 95, 98, 99, 100, 32, 7, 18, 63, 79, 88, 2, 3, 4, 9, 11, 12, 13, 16, 17, 19, 29, 34, 39, 46, 56, 58, 60, 67, 73, 75, 76, 78, 80, 86, 89, 90, 91, 92, 94];
